300
400
320
318
317
316
314
311
311
311
310
310
309
307
306
304
302
302
301
300
299
295
295
294
294
294
292
290
290
290
290
288
286
285
285
284
283
283
282
281
281
280
280
279
279
279
278
278
277
276
275
272
272
272
271
271
270
269
268
267
265
264
264
262
262
259
259
258
257
257
256
256
254
254
253
252
250
249
249
248
248
247
246
246
246
244
244
241
240
240
239
238
237
234
234
234
233
233
232
232
231
231
230
230
230
230
230
230
229
228
227
227
227
224
222
222
222
221
220
220
220
220
220
219
219
218
217
217
215
212
211
209
209
209
207
206
203
202
201
201
200
199
199
198
198
197
196
193
192
191
191
190
188
187
187
187
185
185
185
185
185
185
184
183
181
180
180
180
180
180
179
177
176
176
175
175
174
173
173
173
173
171
171
171
169
168
168
168
167
167
166
165
164
163
162
162
161
159
158
157
156
156
155
155
155
155
155
154
154
153
153
152
150
149
148
148
147
147
146
146
143
142
141
141
141
139
139
139
138
138
137
137
136
135
135
135
134
132
132
132
131
129
126
126
125
124
123
123
123
123
122
121
121
121
120
119
118
118
118
117
117
113
112
109
108
107
106
106
106
105
105
104
102
101
101
99
97
96
95
94
94
94
93
93
92
92
91
89
89
88
87
87
86
86
86
85
85
84
83
81
81
80
